array [1..2] of int: X_INTRODUCED_1_ = [1,-1];
var {222,243}: Vg11:: output_var;
var 232..233: Vg12:: output_var;
var 232..233: Vg13:: output_var;
var {222,243}: Vg14:: output_var;
var -10..10: X_INTRODUCED_6_ ::var_is_introduced ;
var 22..24: X_INTRODUCED_7_ ::var_is_introduced :: is_defined_var;
var -10..10: X_INTRODUCED_8_ ::var_is_introduced ;
var bool: X_INTRODUCED_10_ ::var_is_introduced :: is_defined_var;
var -10..10: X_INTRODUCED_11_ ::var_is_introduced ;
var -10..10: X_INTRODUCED_12_ ::var_is_introduced ;
var bool: X_INTRODUCED_13_ ::var_is_introduced :: is_defined_var;
var -10..10: X_INTRODUCED_16_ ::var_is_introduced ;
var bool: X_INTRODUCED_17_ ::var_is_introduced :: is_defined_var;
var -10..10: X_INTRODUCED_18_ ::var_is_introduced ;
var bool: X_INTRODUCED_20_ ::var_is_introduced :: is_defined_var;
var 22..24: X_INTRODUCED_22_ ::var_is_introduced :: is_defined_var;
var -10..10: X_INTRODUCED_23_ ::var_is_introduced ;
var bool: X_INTRODUCED_25_ ::var_is_introduced :: is_defined_var;
var -10..10: X_INTRODUCED_26_ ::var_is_introduced ;
var bool: X_INTRODUCED_27_ ::var_is_introduced :: is_defined_var;
var bool: X_INTRODUCED_28_ ::var_is_introduced :: is_defined_var;
var bool: X_INTRODUCED_29_ ::var_is_introduced :: is_defined_var;
var bool: X_INTRODUCED_31_ ::var_is_introduced :: is_defined_var;
var bool: X_INTRODUCED_35_ ::var_is_introduced :: is_defined_var;
var bool: X_INTRODUCED_36_ ::var_is_introduced :: is_defined_var;
var bool: X_INTRODUCED_37_ ::var_is_introduced :: is_defined_var;
var bool: X_INTRODUCED_39_ ::var_is_introduced :: is_defined_var;
var bool: X_INTRODUCED_40_ ::var_is_introduced :: is_defined_var;
var bool: X_INTRODUCED_41_ ::var_is_introduced :: is_defined_var;
var bool: X_INTRODUCED_42_ ::var_is_introduced :: is_defined_var;
var bool: X_INTRODUCED_44_ ::var_is_introduced :: is_defined_var;
var bool: X_INTRODUCED_47_ ::var_is_introduced :: is_defined_var;
var bool: X_INTRODUCED_48_ ::var_is_introduced :: is_defined_var;
var bool: X_INTRODUCED_50_ ::var_is_introduced :: is_defined_var;
constraint int_lin_ne(X_INTRODUCED_1_,[Vg11,Vg12],0);
constraint int_lin_ne(X_INTRODUCED_1_,[Vg11,Vg13],0);
constraint int_lin_ne(X_INTRODUCED_1_,[Vg11,Vg14],0);
constraint int_lin_ne(X_INTRODUCED_1_,[Vg12,Vg13],0);
constraint int_lin_ne(X_INTRODUCED_1_,[Vg12,Vg14],0);
constraint int_lin_ne(X_INTRODUCED_1_,[Vg13,Vg14],0);
constraint int_div(Vg12,100,2);
constraint int_div(Vg11,100,2);
constraint int_div(Vg12,10,23);
constraint int_mod(23,10,X_INTRODUCED_6_);
constraint int_div(Vg11,10,X_INTRODUCED_7_):: defines_var(X_INTRODUCED_7_);
constraint int_mod(X_INTRODUCED_7_,10,X_INTRODUCED_8_);
constraint int_mod(Vg12,10,X_INTRODUCED_11_);
constraint int_mod(Vg11,10,X_INTRODUCED_12_);
constraint int_div(Vg13,100,2);
constraint int_div(Vg13,10,23);
constraint int_mod(23,10,X_INTRODUCED_16_);
constraint int_mod(Vg13,10,X_INTRODUCED_18_);
constraint int_div(Vg14,100,2);
constraint int_div(Vg14,10,X_INTRODUCED_22_):: defines_var(X_INTRODUCED_22_);
constraint int_mod(X_INTRODUCED_22_,10,X_INTRODUCED_23_);
constraint int_mod(Vg14,10,X_INTRODUCED_26_);
constraint int_lin_eq_reif(X_INTRODUCED_1_,[X_INTRODUCED_26_,X_INTRODUCED_12_],-2,false);
constraint array_bool_and([X_INTRODUCED_44_,X_INTRODUCED_40_,X_INTRODUCED_39_,X_INTRODUCED_36_,X_INTRODUCED_35_,X_INTRODUCED_29_],false);
constraint array_bool_and([X_INTRODUCED_44_,X_INTRODUCED_40_,X_INTRODUCED_39_,X_INTRODUCED_31_,X_INTRODUCED_29_,X_INTRODUCED_17_],false);
constraint array_bool_or([X_INTRODUCED_42_,X_INTRODUCED_28_,X_INTRODUCED_50_,X_INTRODUCED_48_],true);
constraint int_lin_eq_reif(X_INTRODUCED_1_,[X_INTRODUCED_6_,X_INTRODUCED_8_],-1,X_INTRODUCED_10_):: defines_var(X_INTRODUCED_10_);
constraint int_eq_reif(X_INTRODUCED_11_,X_INTRODUCED_12_,X_INTRODUCED_13_):: defines_var(X_INTRODUCED_13_);
constraint int_lin_eq_reif(X_INTRODUCED_1_,[X_INTRODUCED_16_,X_INTRODUCED_8_],-1,X_INTRODUCED_17_):: defines_var(X_INTRODUCED_17_);
constraint int_lin_eq_reif(X_INTRODUCED_1_,[X_INTRODUCED_18_,X_INTRODUCED_12_],-1,X_INTRODUCED_20_):: defines_var(X_INTRODUCED_20_);
constraint int_lin_eq_reif(X_INTRODUCED_1_,[X_INTRODUCED_23_,X_INTRODUCED_8_],-2,X_INTRODUCED_25_):: defines_var(X_INTRODUCED_25_);
constraint int_lin_eq_reif(X_INTRODUCED_1_,[X_INTRODUCED_26_,X_INTRODUCED_12_],-1,X_INTRODUCED_27_):: defines_var(X_INTRODUCED_27_);
constraint array_bool_and([X_INTRODUCED_27_,X_INTRODUCED_25_,X_INTRODUCED_20_,X_INTRODUCED_17_,X_INTRODUCED_13_,X_INTRODUCED_10_],X_INTRODUCED_28_):: defines_var(X_INTRODUCED_28_);
constraint int_eq_reif(X_INTRODUCED_6_,X_INTRODUCED_8_,X_INTRODUCED_29_):: defines_var(X_INTRODUCED_29_);
constraint int_lin_eq_reif(X_INTRODUCED_1_,[X_INTRODUCED_23_,X_INTRODUCED_8_],-1,X_INTRODUCED_31_):: defines_var(X_INTRODUCED_31_);
constraint int_lin_eq_reif(X_INTRODUCED_1_,[X_INTRODUCED_16_,X_INTRODUCED_8_],1,X_INTRODUCED_35_):: defines_var(X_INTRODUCED_35_);
constraint int_lin_eq_reif(X_INTRODUCED_1_,[X_INTRODUCED_23_,X_INTRODUCED_8_],1,X_INTRODUCED_36_):: defines_var(X_INTRODUCED_36_);
constraint int_lin_eq_reif(X_INTRODUCED_1_,[X_INTRODUCED_6_,X_INTRODUCED_8_],1,X_INTRODUCED_37_):: defines_var(X_INTRODUCED_37_);
constraint int_lin_eq_reif(X_INTRODUCED_1_,[X_INTRODUCED_11_,X_INTRODUCED_12_],1,X_INTRODUCED_39_):: defines_var(X_INTRODUCED_39_);
constraint int_lin_eq_reif(X_INTRODUCED_1_,[X_INTRODUCED_18_,X_INTRODUCED_12_],1,X_INTRODUCED_40_):: defines_var(X_INTRODUCED_40_);
constraint int_lin_eq_reif(X_INTRODUCED_1_,[X_INTRODUCED_26_,X_INTRODUCED_12_],1,X_INTRODUCED_41_):: defines_var(X_INTRODUCED_41_);
constraint array_bool_and([X_INTRODUCED_41_,X_INTRODUCED_40_,X_INTRODUCED_25_,X_INTRODUCED_17_,X_INTRODUCED_13_,X_INTRODUCED_10_],X_INTRODUCED_42_):: defines_var(X_INTRODUCED_42_);
constraint int_lin_eq_reif(X_INTRODUCED_1_,[X_INTRODUCED_26_,X_INTRODUCED_12_],2,X_INTRODUCED_44_):: defines_var(X_INTRODUCED_44_);
constraint int_lin_eq_reif(X_INTRODUCED_1_,[X_INTRODUCED_23_,X_INTRODUCED_8_],2,X_INTRODUCED_47_):: defines_var(X_INTRODUCED_47_);
constraint array_bool_and([X_INTRODUCED_41_,X_INTRODUCED_40_,X_INTRODUCED_37_,X_INTRODUCED_35_,X_INTRODUCED_13_,X_INTRODUCED_47_],X_INTRODUCED_48_):: defines_var(X_INTRODUCED_48_);
constraint array_bool_and([X_INTRODUCED_37_,X_INTRODUCED_35_,X_INTRODUCED_27_,X_INTRODUCED_20_,X_INTRODUCED_13_,X_INTRODUCED_47_],X_INTRODUCED_50_):: defines_var(X_INTRODUCED_50_);
solve  satisfy;
